NAME : n150w60.001.1024.tour
COMMENT : Length = 1024
COMMENT : Found by LKH [Keld Helsgaun] Tue Nov  7 19:36:36 2017
TYPE : TOUR
DIMENSION : 151
TOUR_SECTION
1
123
57
130
37
110
115
11
83
129
140
81
44
112
29
7
82
56
80
116
32
125
70
40
68
69
146
43
22
5
104
84
122
16
86
17
50
20
91
34
108
47
131
18
149
147
143
139
9
2
46
105
58
21
65
99
118
133
51
78
30
49
111
102
73
62
76
13
90
137
15
95
124
119
92
89
26
12
3
60
97
14
25
72
136
27
8
98
107
134
106
101
45
19
31
103
100
148
128
39
120
67
35
55
117
74
88
53
113
33
54
79
138
66
142
59
41
4
96
77
87
94
52
71
6
75
48
93
126
23
150
145
121
38
135
85
141
127
24
42
64
28
109
63
114
36
61
132
10
151
144
-1
EOF
